start_domain = 2;
target_domain = 1;
vnflist_size = 4;
vnflist = [10,1,5,10];
vnf_arcs = [|1,2|1,3|3,4|];
proximity_to_source = [0,1,0,0];
proximity_to_destination = [0,0,0,0];
n_domain_constraints = 2;
domain_constraints = [|3,1,1,1|3,3,1,1|];
